702	1662
706	1584
710	1506
714	1432
718	1354
722	1276
726	1202
730	1128
738	1054
742	1050
750	976
820	972
824	968
828	898
898	894
902	890
910	886
925	883
929	859
933	855
937	851
964	836
968	828
972	824
976	820
980	816
988	812
1007	785
1011	781
1015	777
1050	750
1054	746
1058	742
1128	738
1170	707
1174	703
1244	699
1256	695
1330	691
1474	687
1552	683
1630	679
1704	675
